c Sudoku solution
p cnf 729 0
132 0
169 0
236 0
245 0
281 0
323 0
342 0
351 0
366 0
399 0
428 0
522 0
533 0
549 0
568 0
576 0
614 0
631 0
591 0
754 0
584 0
787 0
813 0
935 0
963 0
972 0
712 0
292 0
998 0
924 0
334 0
555 0
517 0
439 0
377 0
837 0
738 0
473 0
253 0
643 0
793 0
183 0
196 0
894 0
695 0
482 0
497 0
415 0
626 0
456 0
318 0
125 0
111 0
227 0
219 0
385 0
264 0
174 0
278 0
941 0
746 0
765 0
862 0
848 0
957 0
859 0
916 0
821 0
729 0
771 0
875 0
886 0
989 0
444 0
461 0
147 0
158 0
652 0
667 0
679 0
688 0
